Optimal - objective value 8.00000000
      0 x_0_0                       1                       0
      2 x_1_1                       1                       1
      5 x_2_2                       1                       1
      7 x_3_1                       1                      -1
     14 x_4_4                       1                       1
     16 x_5_1                       1                       0
     27 x_6_6                       1                       0
     32 x_7_4                       1                       0
     44 x_8_8                       1                       1
     54 x_9_9                       1                       1
     65 x_10_10                     1                       1
     68 x_11_2                      1                       0
     87 x_12_9                      1                       0
    101 x_13_10                     1                      -1
    114 x_14_9                      1                       0
    120 x_15_0                      1                       0
    136 x_16_0                      1                       0
    163 x_17_10                     1                       0
    173 x_18_2                      1                       0
    194 x_19_4                      1                       0
    214 x_20_4                      1                       0
    241 x_21_10                     1                       0
    261 x_22_8                      1                       0
    286 x_23_10                     1                       0
    310 x_24_10                     1                       0
    325 x_25_0                      1                       0
    353 x_26_2                      1                       0
    388 x_27_10                     1                       0
    415 x_28_9                      1                       0
    443 x_29_8                      1                       0
    471 x_30_6                      1                       0
    502 x_31_6                      1                       0
    536 x_32_8                      1                       0
    562 x_33_1                      1                       0
    597 x_34_2                      1                       0
    639 x_35_9                      1                       0
    674 x_36_8                      1                       0
    703 x_37_0                      1                       0
    741 x_38_0                      1                       0
    781 x_39_1                      1                       0
    826 x_40_6                      1                       0
    871 x_41_10                     1                       0
    905 x_42_2                      1                       0
    952 x_43_6                      1                      -1
    994 x_44_4                      1                       0
   1043 x_45_8                      1                       0
   1081 x_46_0                      1                       0
   1134 x_47_6                      1                       0
   1182 x_48_6                      1                       0
   1233 x_49_8                      1                       0
   1279 x_50_4                      1                       0
   1327 x_51_1                      1                       0
   1386 x_52_8                      1                       0
   1433 x_53_2                      1                       0
   1486 x_54_1                      1                       0
   1548 x_55_8                      1                       0
